
ACE v2.3 

  instance
    name:main

  Loading variables...

  Loading constraints...

  domains
    types:1  values:729  sizes:[9:81]
  variables
    count:81  arrays:1  degrees:[3:3,4:78]
  constraints
    count:105  specific:105  arities:[1:78,9:27]
    distribution:[AllDifferentComplete:27,Extension1:78]
    wck:0.14  cpu:0.453  mem:41M615

  Building solver... 

  solver
    guaranteedAC:true
    wck:0.16  cpu:0.468  mem:44M965

  preprocessing
    effs:184  values:81  removedByAC:648  unsat:false
    wck:0.003  cpu:0.468  mem:44M965

    run1  dpts:-1..80  effs:184  wck:0.00  sols:1

  global
    effs:184
    stop:REACHED_GOAL  sols:1  sol1Cpu:0.468
    wck:0.17  cpu:0.468  mem:44M965


  Solution 1 in JSON format:
   {
    x: [
     [1, 2, 3, 4, 5, 6, 7, 8, 9],
     [4, 5, 6, 7, 8, 9, 1, 2, 3],
     [7, 8, 9, 1, 2, 3, 4, 5, 6],
     [2, 3, 4, 5, 6, 7, 8, 9, 1],
     [5, 6, 7, 8, 9, 1, 2, 3, 4],
     [8, 9, 1, 2, 3, 4, 5, 6, 7],
     [3, 4, 5, 6, 7, 8, 9, 1, 2],
     [6, 7, 8, 9, 1, 2, 3, 4, 5],
     [9, 1, 2, 3, 4, 5, 6, 7, 8]
    ]
   }

s SATISFIABLE

v <instantiation id='sol1' type='solution'> <list> x[][] </list> <values> 1 2 3 4 5 6 7 8 9 4 5 6 7 8 9 1 2 3 7 8 9 1 2 3 4 5 6 2 3 4 5 6 7 8 9 1 5 6 7 8 9 1 2 3 4 8 9 1 2 3 4 5 6 7 3 4 5 6 7 8 9 1 2 6 7 8 9 1 2 3 4 5 9 1 2 3 4 5 6 7 8 </values> </instantiation>

d WRONG DECISIONS 0
d FOUND SOLUTIONS 1
d INCOMPLETE EXPLORATION

c real time : 0.468
